100 10
746 526
859 798
934 669
288 639
411 401
576 657
753 270
556 661
642 335
648 527
699 618
803 316
303 445
583 432
956 850
489 911
801 381
627 292
615 365
599 97
135 507
127 460
330 332
254 584
387 581
479 492
309 315
514 509
770 222
482 567
764 444
384 477
331 636
473 542
677 671
740 551
130 660
636 475
642 430
223 643
522 412
687 134
822 770
73 638
462 585
104 508
924 491
150 330
582 531
505 406
770 294
582 642
554 441
60 337
320 612
631 482
506 323
780 906
628 486
598 948
857 597
935 594
719 750
397 451
546 593
388 625
317 481
595 579
628 801
563 562
606 790
519 816
641 548
402 424
660 337
377 366
397 613
583 699
902 745
328 528
503 328
470 450
406 262
470 441
479 532
680 606
610 921
559 456
394 621
784 626
723 164
476 286
684 920
507 414
197 474
830 952
742 642
474 541
484 946
859 455
